\* Problem: Blade Runner *\

Minimize
 obj: + 366 x_1 + 512 x_2 + 510 x_3 + 1020 x_4 + 1032 x_5 + 970 x_6
 + 492 x_7 + 618 x_8 + 1140 x_9 + 1140 x_10 + 380 x_11 + 1015 x_12
 + 1101 x_13 + 1298 x_14 + 1209 x_15 + 1468 x_16 + 1117 x_17 + 788 x_18
 + 682 x_19 + 761 x_20 + 759 x_21 + 1311 x_22 + 1281 x_23 + 1261 x_24
 + 684 x_25 + 761 x_26 + 1263 x_27 + 632 x_28 + 1331 x_29 + 1350 x_30
 + 1589 x_31 + 1333 x_32 + 1331 x_33 + 630 x_34 + 1103 x_35 + 1111 x_36
 + 1071 x_37 + 1219 x_38 + 1397 x_39 + 1360 x_40 + 1335 x_41 + 1330 x_42
 + 1661 x_43 + 1328 x_44 + 1064 x_45 + 502 x_46 + 562 x_47 + 1041 x_48
 + 979 x_49 + 628 x_50 + 670 x_51 + 1149 x_52 + 629 x_53 + 1101 x_54
 + 1307 x_55 + 1168 x_56 + 991 x_57 + 818 x_58 + 811 x_59 + 1270 x_60
 + 805 x_61 + 1342 x_62 + 803 x_63 + 1223 x_64 + 1332 x_65 + 1068 x_66
 + 452 x_67 + 1157 x_68 + 1156 x_69 + 1218 x_70 + 1256 x_71 + 1542 x_72
 + 1336 x_73 + 1334 x_74 + 1222 x_75 + 1257 x_76 + 1335 x_77 + 1143 x_78
 + 1142 x_79

Subject To
 r_1: + x_79 + x_78 + x_77 + x_76 + x_75 + x_74 + x_73 + x_72 + x_71
 + x_70 + x_69 + x_68 = 1
 r_2: + x_78 + x_77 + x_76 + x_67 + x_66 + x_65 + x_64 + x_63 + x_62
 + x_61 + x_60 + x_59 + x_58 + x_57 + x_56 + x_55 + x_54 + x_53 + x_52
 + x_51 + x_50 + x_49 + x_48 + x_47 + x_46 = 1
 r_3: + x_75 + x_66 + x_65 + x_64 + x_45 + x_44 + x_43 + x_42 + x_41
 + x_40 + x_39 + x_38 + x_37 + x_36 + x_35 = 1
 r_4: + x_77 + x_74 + x_73 + x_65 + x_63 + x_62 + x_61 + x_60 + x_59
 + x_58 + x_44 + x_43 + x_42 + x_41 + x_40 + x_34 + x_33 + x_32 + x_31
 + x_30 + x_29 + x_28 + x_27 + x_26 + x_25 + x_24 + x_23 + x_22 + x_21
 + x_20 + x_19 = 1
 r_5: + x_72 + x_62 + x_57 + x_56 + x_55 + x_54 + x_43 + x_39 + x_33
 + x_32 + x_31 + x_30 + x_29 + x_18 + x_17 + x_16 + x_15 + x_14 + x_13
 + x_12 = 1
 r_6: + x_76 + x_73 + x_71 + x_64 + x_61 + x_56 + x_53 + x_52 + x_51
 + x_50 + x_42 + x_38 + x_32 + x_28 + x_27 + x_26 + x_25 + x_17 + x_16
 + x_15 + x_11 + x_10 + x_9 + x_8 + x_7 = 1
 r_7: + x_70 + x_60 + x_55 + x_52 + x_49 + x_48 + x_41 + x_37 + x_31
 + x_27 + x_24 + x_23 + x_22 + x_16 + x_14 + x_10 + x_9 + x_6 + x_5
 + x_4 = 1
 r_8: + x_69 + x_59 + x_54 + x_51 + x_48 + x_47 + x_40 + x_36 + x_30
 + x_26 + x_23 + x_21 + x_20 + x_15 + x_13 + x_9 + x_8 + x_5 + x_3 + x_2
 = 1
 r_9: + x_68 + x_58 + x_50 + x_46 + x_35 + x_29 + x_25 + x_22 + x_20
 + x_19 + x_12 + x_7 + x_4 + x_2 + x_1 = 1

Bounds
 0 <= x_1 <= 1
 0 <= x_2 <= 1
 0 <= x_3 <= 1
 0 <= x_4 <= 1
 0 <= x_5 <= 1
 0 <= x_6 <= 1
 0 <= x_7 <= 1
 0 <= x_8 <= 1
 0 <= x_9 <= 1
 0 <= x_10 <= 1
 0 <= x_11 <= 1
 0 <= x_12 <= 1
 0 <= x_13 <= 1
 0 <= x_14 <= 1
 0 <= x_15 <= 1
 0 <= x_16 <= 1
 0 <= x_17 <= 1
 0 <= x_18 <= 1
 0 <= x_19 <= 1
 0 <= x_20 <= 1
 0 <= x_21 <= 1
 0 <= x_22 <= 1
 0 <= x_23 <= 1
 0 <= x_24 <= 1
 0 <= x_25 <= 1
 0 <= x_26 <= 1
 0 <= x_27 <= 1
 0 <= x_28 <= 1
 0 <= x_29 <= 1
 0 <= x_30 <= 1
 0 <= x_31 <= 1
 0 <= x_32 <= 1
 0 <= x_33 <= 1
 0 <= x_34 <= 1
 0 <= x_35 <= 1
 0 <= x_36 <= 1
 0 <= x_37 <= 1
 0 <= x_38 <= 1
 0 <= x_39 <= 1
 0 <= x_40 <= 1
 0 <= x_41 <= 1
 0 <= x_42 <= 1
 0 <= x_43 <= 1
 0 <= x_44 <= 1
 0 <= x_45 <= 1
 0 <= x_46 <= 1
 0 <= x_47 <= 1
 0 <= x_48 <= 1
 0 <= x_49 <= 1
 0 <= x_50 <= 1
 0 <= x_51 <= 1
 0 <= x_52 <= 1
 0 <= x_53 <= 1
 0 <= x_54 <= 1
 0 <= x_55 <= 1
 0 <= x_56 <= 1
 0 <= x_57 <= 1
 0 <= x_58 <= 1
 0 <= x_59 <= 1
 0 <= x_60 <= 1
 0 <= x_61 <= 1
 0 <= x_62 <= 1
 0 <= x_63 <= 1
 0 <= x_64 <= 1
 0 <= x_65 <= 1
 0 <= x_66 <= 1
 0 <= x_67 <= 1
 0 <= x_68 <= 1
 0 <= x_69 <= 1
 0 <= x_70 <= 1
 0 <= x_71 <= 1
 0 <= x_72 <= 1
 0 <= x_73 <= 1
 0 <= x_74 <= 1
 0 <= x_75 <= 1
 0 <= x_76 <= 1
 0 <= x_77 <= 1
 0 <= x_78 <= 1
 0 <= x_79 <= 1

Generals
 x_1
 x_2
 x_3
 x_4
 x_5
 x_6
 x_7
 x_8
 x_9
 x_10
 x_11
 x_12
 x_13
 x_14
 x_15
 x_16
 x_17
 x_18
 x_19
 x_20
 x_21
 x_22
 x_23
 x_24
 x_25
 x_26
 x_27
 x_28
 x_29
 x_30
 x_31
 x_32
 x_33
 x_34
 x_35
 x_36
 x_37
 x_38
 x_39
 x_40
 x_41
 x_42
 x_43
 x_44
 x_45
 x_46
 x_47
 x_48
 x_49
 x_50
 x_51
 x_52
 x_53
 x_54
 x_55
 x_56
 x_57
 x_58
 x_59
 x_60
 x_61
 x_62
 x_63
 x_64
 x_65
 x_66
 x_67
 x_68
 x_69
 x_70
 x_71
 x_72
 x_73
 x_74
 x_75
 x_76
 x_77
 x_78
 x_79

End
